qbf_easy_train/easy_1208_UNSAT.qdimacs
p cnf 40 115
a 19 14 6 0
e 1 2 3 4 5 7 8 9 10 11 12 13 15 16 17 18 20 21 22 23 24 25 26 27 28 29 30 31 32 33 34 35 36 37 38 39 40 0
4 -2 0
4 3 0
2 -3 -4 0
5 1 0
5 4 0
-1 -4 -5 0
-5 3 -6 0
5 -3 -6 0
-5 -3 6 0
5 3 6 0
8 -5 0
8 -7 0
5 7 -8 0
-6 -8 -9 0
6 8 -9 0
-6 8 9 0
6 -8 9 0
-11 -1 0
-11 -5 0
1 5 11 0
-12 11 0
-12 11 0
-11 12 0
-13 10 0
-13 -12 0
-10 12 13 0
-14 -9 0
-14 13 0
9 -13 14 0
16 1 0
16 15 0
-1 -15 -16 0
17 2 0
17 -3 0
-2 3 -17 0
17 7 -18 0
-17 -7 -18 0
17 -7 18 0
-17 7 18 0
-19 1 0
-19 3 0
-1 -3 19 0
20 19 0
20 11 0
-19 -11 -20 0
21 -18 0
21 20 0
18 -20 -21 0
-22 -16 0
-22 21 0
16 -21 22 0
23 -14 0
23 -22 0
14 22 -23 0
24 -8 -25 0
-24 8 -25 0
24 8 25 0
-24 -8 25 0
26 -3 0
26 11 0
3 -11 -26 0
27 3 0
27 8 0
-3 -8 -27 0
-26 -27 -28 0
26 27 -28 0
-26 27 28 0
26 -27 28 0
29 1 0
29 4 0
-1 -4 -29 0
30 -28 0
30 -29 0
28 29 -30 0
31 25 0
31 30 0
-25 -30 -31 0
-32 7 0
-32 -17 0
-7 17 32 0
33 -1 0
33 -32 0
1 32 -33 0
34 31 0
34 33 0
-31 -33 -34 0
35 18 -36 0
-35 -18 -36 0
35 -18 36 0
-35 18 36 0
-34 -36 -37 0
34 36 -37 0
-34 36 37 0
34 -36 37 0
38 -23 0
38 -37 0
23 37 -38 0
39 8 0
39 -26 0
-8 26 -39 0
-38 39 -40 0
38 -39 -40 0
-38 -39 40 0
38 39 40 0
26 -36 12 38 0
19 17 35 33 0
38 24 -11 17 0
35 -31 -17 -10 0
-14 -1 15 0
36 -27 -11 16 39 0
22 16 19 32 34 1 30 -5 0
2 8 -5 37 0
-13 -15 4 -11 -40 28 0
-17 -5 2 38 -40 23 0
40 0
