sat_easy_train/easy_1208_UNSAT.dimacs
p cnf 150 508
-1 -2 -3 0
1 2 -3 0
-1 2 3 0
1 -2 3 0
6 -4 0
6 5 0
4 -5 -6 0
8 -6 0
8 7 0
6 -7 -8 0
-10 8 0
-10 -9 0
-8 9 10 0
-11 -3 0
-11 -10 0
3 10 11 0
14 12 0
14 -13 0
-12 13 -14 0
15 14 0
15 -6 0
-14 6 -15 0
18 16 0
18 17 0
-16 -17 -18 0
-19 -15 0
-19 -18 0
15 18 19 0
-21 -20 0
-21 16 0
20 -16 21 0
22 -21 0
22 -8 0
21 8 -22 0
-23 -19 0
-23 22 0
19 -22 23 0
24 -9 0
24 6 0
9 -6 -24 0
25 -24 0
25 -3 0
24 3 -25 0
-26 12 0
-26 4 0
-12 -4 26 0
27 -16 0
27 2 0
16 -2 -27 0
28 29 -30 0
-28 -29 -30 0
28 -29 30 0
-28 29 30 0
31 -21 0
31 27 0
21 -27 -31 0
-32 30 0
-32 31 0
-30 -31 32 0
-33 -27 0
-33 -32 0
27 32 33 0
-34 -26 0
-34 -33 0
26 33 34 0
-25 -34 -35 0
25 34 -35 0
-25 34 35 0
25 -34 35 0
26 21 -36 0
-26 -21 -36 0
26 -21 36 0
-26 21 36 0
-35 36 -37 0
35 -36 -37 0
-35 -36 37 0
35 36 37 0
23 37 -38 0
-23 -37 -38 0
23 -37 38 0
-23 37 38 0
39 11 0
39 -38 0
-11 38 -39 0
-40 30 0
-40 19 0
-30 -19 40 0
-41 -21 0
-41 2 0
21 -2 41 0
42 -41 0
42 -21 0
41 21 -42 0
-42 -24 -43 0
42 24 -43 0
-42 24 43 0
42 -24 43 0
-44 40 0
-44 43 0
-40 -43 44 0
45 -6 0
45 15 0
6 -15 -45 0
46 6 0
46 -12 0
-6 12 -46 0
-47 16 -48 0
47 -16 -48 0
-47 -16 48 0
47 16 48 0
2 48 -49 0
-2 -48 -49 0
2 -48 49 0
-2 48 49 0
-50 -46 0
-50 -49 0
46 49 50 0
-51 45 0
-51 50 0
-45 -50 51 0
-52 44 0
-52 51 0
-44 -51 52 0
54 -2 0
54 53 0
2 -53 -54 0
55 30 0
55 -54 0
-30 54 -55 0
-14 -55 -56 0
14 55 -56 0
-14 55 56 0
14 -55 56 0
56 9 -57 0
-56 -9 -57 0
56 -9 57 0
-56 9 57 0
-58 16 0
-58 -24 0
-16 24 58 0
59 -58 0
59 10 0
58 -10 -59 0
-60 -6 0
-60 -27 0
6 27 60 0
61 -19 0
61 20 0
19 -20 -61 0
61 -20 -62 0
-61 20 -62 0
61 20 62 0
-61 -20 62 0
63 -5 0
63 -61 0
5 61 -63 0
64 -63 0
64 9 0
63 -9 -64 0
-62 -64 -65 0
62 64 -65 0
-62 64 65 0
62 -64 65 0
66 -60 0
66 -65 0
60 65 -66 0
-67 59 0
-67 -66 0
-59 66 67 0
-68 57 0
-68 67 0
-57 -67 68 0
-69 31 0
-69 -4 0
-31 4 69 0
-70 -58 0
-70 -4 0
58 4 70 0
71 18 0
71 -6 0
-18 6 -71 0
-71 -61 -72 0
71 61 -72 0
-71 61 72 0
71 -61 72 0
73 72 0
73 -27 0
-72 27 -73 0
-74 -70 0
-74 73 0
70 -73 74 0
-69 -74 -75 0
69 74 -75 0
-69 74 75 0
69 -74 75 0
-76 65 0
-76 -32 0
-65 32 76 0
40 -76 -77 0
-40 76 -77 0
40 76 77 0
-40 -76 77 0
-28 -31 -78 0
28 31 -78 0
-28 31 78 0
28 -31 78 0
-31 20 -79 0
31 -20 -79 0
-31 -20 79 0
31 20 79 0
78 -79 -80 0
-78 79 -80 0
78 79 80 0
-78 -79 80 0
81 -80 0
81 -62 0
80 62 -81 0
82 -77 0
82 81 0
77 -81 -82 0
17 -58 -83 0
-17 58 -83 0
17 58 83 0
-17 -58 83 0
84 82 0
84 -83 0
-82 83 -84 0
-85 75 0
-85 84 0
-75 -84 85 0
86 68 0
86 -85 0
-68 85 -86 0
87 22 0
87 47 0
-22 -47 -87 0
-88 87 0
-88 -6 0
-87 6 88 0
89 17 0
89 9 0
-17 -9 -89 0
-27 89 -90 0
27 -89 -90 0
-27 -89 90 0
27 89 90 0
-91 -22 0
-91 -47 0
22 47 91 0
-91 -80 -92 0
91 80 -92 0
-91 80 92 0
91 -80 92 0
-93 -90 0
-93 -92 0
90 92 93 0
-94 65 0
-94 -14 0
-65 14 94 0
15 94 -95 0
-15 -94 -95 0
15 -94 95 0
-15 94 95 0
28 25 -96 0
-28 -25 -96 0
28 -25 96 0
-28 25 96 0
97 -47 0
97 -96 0
47 96 -97 0
-98 97 0
-98 -24 0
-97 24 98 0
100 98 0
100 99 0
-98 -99 -100 0
-101 64 0
-101 -3 0
-64 3 101 0
-102 -100 0
-102 -101 0
100 101 102 0
-103 16 0
-103 80 0
-16 -80 103 0
-65 103 -104 0
65 -103 -104 0
-65 -103 104 0
65 103 104 0
102 104 -105 0
-102 -104 -105 0
102 -104 105 0
-102 104 105 0
106 95 0
106 -105 0
-95 105 -106 0
-107 28 0
-107 -14 0
-28 14 107 0
-108 -89 0
-108 53 0
89 -53 108 0
109 -107 0
109 108 0
107 -108 -109 0
106 -109 -110 0
-106 109 -110 0
106 109 110 0
-106 -109 110 0
-5 -19 -111 0
5 19 -111 0
-5 19 111 0
5 -19 111 0
112 -111 0
112 -9 0
111 9 -112 0
-113 110 0
-113 112 0
-110 -112 113 0
-114 -93 0
-114 -113 0
93 113 114 0
115 88 0
115 114 0
-88 -114 -115 0
-116 -86 0
-116 115 0
86 -115 116 0
-117 -52 0
-117 -116 0
52 116 117 0
118 12 0
118 16 0
-12 -16 -118 0
-118 -97 -119 0
118 97 -119 0
-118 97 119 0
118 -97 119 0
-5 79 -120 0
5 -79 -120 0
-5 -79 120 0
5 79 120 0
121 -27 0
121 -120 0
27 120 -121 0
21 64 -122 0
-21 -64 -122 0
21 -64 122 0
-21 64 122 0
4 -16 -123 0
-4 16 -123 0
4 16 123 0
-4 -16 123 0
124 123 0
124 56 0
-123 -56 -124 0
-122 -124 -125 0
122 124 -125 0
-122 124 125 0
122 -124 125 0
126 -121 0
126 125 0
121 -125 -126 0
119 126 -127 0
-119 -126 -127 0
119 -126 127 0
-119 126 127 0
117 -127 -128 0
-117 127 -128 0
117 127 128 0
-117 -127 128 0
129 -39 0
129 -128 0
39 128 -129 0
130 21 0
130 -29 0
-21 29 -130 0
-131 -14 0
-131 -14 0
14 131 0
-132 53 0
-132 -120 0
-53 120 132 0
133 4 0
133 18 0
-4 -18 -133 0
-134 22 0
-134 12 0
-22 -12 134 0
135 133 0
135 -134 0
-133 134 -135 0
136 -132 0
136 135 0
132 -135 -136 0
31 28 -137 0
-31 -28 -137 0
31 -28 137 0
-31 28 137 0
138 63 0
138 137 0
-63 -137 -138 0
-139 65 0
-139 32 0
-65 -32 139 0
-140 137 0
-140 43 0
-137 -43 140 0
141 -139 0
141 140 0
139 -140 -141 0
142 -138 0
142 -141 0
138 141 -142 0
-143 97 0
-143 22 0
-97 -22 143 0
-30 17 -144 0
30 -17 -144 0
-30 -17 144 0
30 17 144 0
-143 144 -145 0
143 -144 -145 0
-143 -144 145 0
143 144 145 0
142 -145 -146 0
-142 145 -146 0
142 145 146 0
-142 -145 146 0
147 -136 0
147 146 0
136 -146 -147 0
148 131 0
148 147 0
-131 -147 -148 0
149 -130 0
149 148 0
130 -148 -149 0
150 129 0
150 -149 0
-129 149 -150 0
-127 121 0
-41 -118 67 81 -148 -115 0
135 140 108 91 0
16 -54 0
-24 -95 0
-132 126 -67 135 85 0
104 -46 0
55 140 26 -38 -31 0
28 20 0
-15 -34 0
-91 89 0
-24 -68 -66 -15 0
115 -64 137 0
76 -16 28 -79 -43 -1 0
21 53 0
53 41 54 52 -74 0
-127 92 -101 0
16 -125 122 53 0
-25 37 139 124 78 0
-92 -96 -137 48 0
7 -80 -92 -138 -125 -93 0
-125 -11 38 -2 40 0
-58 -84 -111 0
122 -11 81 124 -143 -68 0
96 -49 25 0
-114 -43 0
79 -148 0
1 62 -39 59 -12 -144 0
-18 -5 111 -47 19 52 0
-40 23 0
-42 1 -52 -18 0
102 -43 0
-24 76 0
-65 18 0
-91 52 -121 0
40 129 17 15 0
-37 103 127 11 0
-13 85 -117 -78 0
-101 -49 15 -109 -103 -97 0
-129 -14 12 -25 -86 27 0
-87 93 -57 144 -2 0
113 90 -76 59 -3 -105 0
-31 133 40 30 -15 4 0
72 -138 -142 0
69 -54 -57 97 0
66 59 90 -147 0
58 4 -96 79 0
102 -35 -53 -31 -138 0
84 -144 38 97 0
147 98 0
-12 -144 33 29 0
130 -99 0
124 104 0
118 -73 -27 0
-38 17 -54 128 0
30 -48 38 -5 0
-50 -139 0
128 93 11 -100 73 0
-33 62 71 -61 0
-99 94 144 -24 -50 0
48 41 -145 -61 0
-75 -124 133 0
-21 104 0
-97 43 -44 -133 -60 106 0
-116 -43 85 0
115 59 0
150 0
